(set-logic ALL)
(declare-const BAV1 Bool)
(declare-const BAV2 Bool)
(declare-const BAV3 Bool)
(declare-const BAV4 Bool)
(declare-const BAV5 Bool)
(declare-const BAV6 Bool)
(declare-sort S 0)
(declare-sort T 0)
(declare-fun s1 () S)
(declare-fun s2 () S)
(declare-fun s3 () S)
(declare-fun t1 () T)
(declare-fun t2 () T)
(declare-fun t3 () T)
(assert (not (= s1 s2)))
(assert (not (= s2 s3)))
(assert (not (= s3 s1)))
(assert (not (= t1 t2)))
(assert (not (= t2 t3)))
(assert (not (= t3 t1)))
(assert (= BAV1 (= s1 s2)))
(assert (= BAV2 (= s2 s3)))
(assert (= BAV3 (= s3 s1)))
(assert (= BAV4 (= t1 t2)))
(assert (= BAV5 (= t2 t3)))
(assert (= BAV6 (= t3 t1)))
(check-sat)
(get-model)
(exit)